c "random instance"
p edges 150 4487
e 1 4
e 1 7
e 1 11
e 1 12
e 1 15
e 1 18
e 1 20
e 1 22
e 1 23
e 1 27
e 1 31
e 1 33
e 1 34
e 1 35
e 1 36
e 1 38
e 1 42
e 1 43
e 1 47
e 1 48
e 1 51
e 1 58
e 1 66
e 1 67
e 1 69
e 1 71
e 1 73
e 1 74
e 1 75
e 1 78
e 1 81
e 1 89
e 1 91
e 1 92
e 1 94
e 1 98
e 1 102
e 1 107
e 1 110
e 1 111
e 1 115
e 1 116
e 1 118
e 1 120
e 1 121
e 1 122
e 1 125
e 1 126
e 1 127
e 1 129
e 1 130
e 1 135
e 1 139
e 1 142
e 1 143
e 1 146
e 1 147
e 1 150
e 2 7
e 2 8
e 2 9
e 2 11
e 2 13
e 2 22
e 2 23
e 2 24
e 2 26
e 2 32
e 2 33
e 2 34
e 2 35
e 2 36
e 2 38
e 2 45
e 2 47
e 2 49
e 2 50
e 2 52
e 2 53
e 2 55
e 2 56
e 2 57
e 2 58
e 2 60
e 2 62
e 2 66
e 2 69
e 2 72
e 2 74
e 2 78
e 2 83
e 2 86
e 2 89
e 2 91
e 2 95
e 2 100
e 2 102
e 2 103
e 2 108
e 2 110
e 2 114
e 2 115
e 2 117
e 2 118
e 2 122
e 2 124
e 2 125
e 2 128
e 2 129
e 2 130
e 2 131
e 2 132
e 2 133
e 2 134
e 2 135
e 2 137
e 2 140
e 2 141
e 2 142
e 2 143
e 2 146
e 2 147
e 3 6
e 3 11
e 3 12
e 3 13
e 3 15
e 3 16
e 3 18
e 3 22
e 3 25
e 3 30
e 3 34
e 3 39
e 3 41
e 3 42
e 3 43
e 3 44
e 3 53
e 3 57
e 3 60
e 3 62
e 3 64
e 3 67
e 3 69
e 3 72
e 3 77
e 3 82
e 3 83
e 3 87
e 3 91
e 3 92
e 3 93
e 3 94
e 3 95
e 3 97
e 3 101
e 3 102
e 3 103
e 3 108
e 3 112
e 3 113
e 3 114
e 3 115
e 3 116
e 3 119
e 3 120
e 3 122
e 3 126
e 3 138
e 3 141
e 3 144
e 3 147
e 3 150
e 4 8
e 4 9
e 4 14
e 4 15
e 4 19
e 4 33
e 4 35
e 4 36
e 4 37
e 4 40
e 4 43
e 4 52
e 4 54
e 4 58
e 4 59
e 4 60
e 4 61
e 4 62
e 4 66
e 4 72
e 4 76
e 4 77
e 4 81
e 4 84
e 4 86
e 4 87
e 4 88
e 4 89
e 4 90
e 4 94
e 4 100
e 4 101
e 4 102
e 4 104
e 4 108
e 4 109
e 4 110
e 4 111
e 4 112
e 4 113
e 4 115
e 4 116
e 4 117
e 4 118
e 4 121
e 4 122
e 4 123
e 4 124
e 4 130
e 4 132
e 4 133
e 4 134
e 4 139
e 4 141
e 4 146
e 4 148
e 5 6
e 5 7
e 5 10
e 5 12
e 5 13
e 5 15
e 5 18
e 5 21
e 5 26
e 5 27
e 5 29
e 5 38
e 5 39
e 5 40
e 5 43
e 5 48
e 5 50
e 5 53
e 5 54
e 5 55
e 5 58
e 5 60
e 5 62
e 5 63
e 5 64
e 5 65
e 5 66
e 5 68
e 5 74
e 5 75
e 5 79
e 5 80
e 5 81
e 5 82
e 5 83
e 5 84
e 5 85
e 5 88
e 5 94
e 5 97
e 5 103
e 5 104
e 5 108
e 5 109
e 5 111
e 5 112
e 5 119
e 5 125
e 5 127
e 5 128
e 5 136
e 5 137
e 5 139
e 5 141
e 5 143
e 5 145
e 5 149
e 6 7
e 6 12
e 6 13
e 6 14
e 6 17
e 6 21
e 6 23
e 6 28
e 6 29
e 6 32
e 6 34
e 6 41
e 6 42
e 6 46
e 6 48
e 6 49
e 6 51
e 6 53
e 6 57
e 6 59
e 6 61
e 6 64
e 6 65
e 6 67
e 6 70
e 6 71
e 6 73
e 6 74
e 6 75
e 6 81
e 6 84
e 6 85
e 6 90
e 6 91
e 6 93
e 6 94
e 6 95
e 6 96
e 6 97
e 6 105
e 6 106
e 6 109
e 6 112
e 6 113
e 6 115
e 6 117
e 6 118
e 6 119
e 6 120
e 6 129
e 6 130
e 6 133
e 6 134
e 6 135
e 6 136
e 6 142
e 6 143
e 6 144
e 6 147
e 6 149
e 7 8
e 7 9
e 7 10
e 7 12
e 7 14
e 7 16
e 7 21
e 7 22
e 7 23
e 7 25
e 7 27
e 7 30
e 7 32
e 7 33
e 7 36
e 7 38
e 7 42
e 7 44
e 7 48
e 7 50
e 7 52
e 7 55
e 7 63
e 7 64
e 7 67
e 7 68
e 7 69
e 7 71
e 7 72
e 7 73
e 7 75
e 7 76
e 7 77
e 7 79
e 7 80
e 7 82
e 7 83
e 7 84
e 7 88
e 7 96
e 7 100
e 7 101
e 7 102
e 7 104
e 7 109
e 7 111
e 7 114
e 7 117
e 7 120
e 7 124
e 7 125
e 7 127
e 7 128
e 7 131
e 7 135
e 7 139
e 7 141
e 7 145
e 7 147
e 7 150
e 8 9
e 8 19
e 8 20
e 8 25
e 8 27
e 8 33
e 8 34
e 8 35
e 8 36
e 8 37
e 8 39
e 8 40
e 8 41
e 8 42
e 8 43
e 8 45
e 8 52
e 8 53
e 8 56
e 8 58
e 8 61
e 8 62
e 8 63
e 8 64
e 8 65
e 8 66
e 8 67
e 8 69
e 8 71
e 8 73
e 8 74
e 8 76
e 8 79
e 8 81
e 8 83
e 8 84
e 8 85
e 8 86
e 8 87
e 8 88
e 8 89
e 8 91
e 8 96
e 8 97
e 8 99
e 8 104
e 8 105
e 8 109
e 8 110
e 8 117
e 8 122
e 8 123
e 8 124
e 8 125
e 8 127
e 8 129
e 8 134
e 8 136
e 8 137
e 8 138
e 8 142
e 8 143
e 8 150
e 9 11
e 9 15
e 9 16
e 9 17
e 9 19
e 9 22
e 9 23
e 9 25
e 9 29
e 9 30
e 9 33
e 9 34
e 9 35
e 9 37
e 9 39
e 9 40
e 9 44
e 9 46
e 9 48
e 9 50
e 9 57
e 9 60
e 9 68
e 9 71
e 9 75
e 9 78
e 9 80
e 9 81
e 9 82
e 9 84
e 9 88
e 9 89
e 9 90
e 9 93
e 9 94
e 9 96
e 9 98
e 9 100
e 9 101
e 9 105
e 9 106
e 9 107
e 9 109
e 9 112
e 9 113
e 9 115
e 9 126
e 9 127
e 9 129
e 9 132
e 9 134
e 9 137
e 9 139
e 9 141
e 9 143
e 9 145
e 9 150
e 10 11
e 10 14
e 10 15
e 10 21
e 10 22
e 10 24
e 10 25
e 10 26
e 10 29
e 10 31
e 10 35
e 10 37
e 10 39
e 10 43
e 10 44
e 10 45
e 10 48
e 10 49
e 10 51
e 10 52
e 10 54
e 10 58
e 10 61
e 10 62
e 10 64
e 10 66
e 10 69
e 10 71
e 10 73
e 10 74
e 10 76
e 10 77
e 10 78
e 10 80
e 10 82
e 10 84
e 10 86
e 10 90
e 10 92
e 10 107
e 10 108
e 10 109
e 10 112
e 10 115
e 10 117
e 10 119
e 10 120
e 10 124
e 10 125
e 10 127
e 10 128
e 10 129
e 10 131
e 10 133
e 10 135
e 10 137
e 10 141
e 10 142
e 10 143
e 10 144
e 10 146
e 10 147
e 10 148
e 10 149
e 11 12
e 11 13
e 11 17
e 11 26
e 11 30
e 11 32
e 11 33
e 11 35
e 11 37
e 11 40
e 11 41
e 11 42
e 11 45
e 11 47
e 11 50
e 11 53
e 11 57
e 11 58
e 11 59
e 11 64
e 11 67
e 11 70
e 11 77
e 11 81
e 11 85
e 11 86
e 11 87
e 11 89
e 11 90
e 11 92
e 11 93
e 11 94
e 11 97
e 11 98
e 11 101
e 11 103
e 11 105
e 11 106
e 11 109
e 11 110
e 11 112
e 11 114
e 11 115
e 11 121
e 11 127
e 11 134
e 11 135
e 11 136
e 11 140
e 11 142
e 11 143
e 11 145
e 11 148
e 11 149
e 12 13
e 12 14
e 12 20
e 12 24
e 12 34
e 12 36
e 12 37
e 12 39
e 12 41
e 12 42
e 12 44
e 12 46
e 12 50
e 12 53
e 12 58
e 12 59
e 12 60
e 12 63
e 12 64
e 12 66
e 12 68
e 12 69
e 12 72
e 12 75
e 12 78
e 12 81
e 12 85
e 12 91
e 12 101
e 12 104
e 12 111
e 12 115
e 12 117
e 12 118
e 12 119
e 12 120
e 12 122
e 12 123
e 12 126
e 12 131
e 12 144
e 12 145
e 12 147
e 12 148
e 12 149
e 12 150
e 13 17
e 13 19
e 13 23
e 13 24
e 13 25
e 13 29
e 13 31
e 13 33
e 13 37
e 13 38
e 13 39
e 13 48
e 13 51
e 13 62
e 13 64
e 13 65
e 13 66
e 13 68
e 13 69
e 13 71
e 13 72
e 13 75
e 13 76
e 13 81
e 13 82
e 13 84
e 13 86
e 13 89
e 13 91
e 13 92
e 13 93
e 13 95
e 13 98
e 13 104
e 13 108
e 13 109
e 13 110
e 13 112
e 13 115
e 13 119
e 13 124
e 13 126
e 13 129
e 13 130
e 13 134
e 13 138
e 13 139
e 13 140
e 13 146
e 13 147
e 14 17
e 14 21
e 14 26
e 14 30
e 14 32
e 14 33
e 14 37
e 14 39
e 14 40
e 14 43
e 14 44
e 14 49
e 14 51
e 14 52
e 14 60
e 14 61
e 14 62
e 14 66
e 14 68
e 14 69
e 14 70
e 14 71
e 14 74
e 14 75
e 14 83
e 14 85
e 14 88
e 14 94
e 14 98
e 14 100
e 14 101
e 14 107
e 14 109
e 14 113
e 14 115
e 14 116
e 14 117
e 14 118
e 14 120
e 14 121
e 14 123
e 14 124
e 14 128
e 14 129
e 14 140
e 14 143
e 14 149
e 14 150
e 15 16
e 15 18
e 15 20
e 15 23
e 15 27
e 15 29
e 15 30
e 15 34
e 15 39
e 15 41
e 15 47
e 15 49
e 15 50
e 15 51
e 15 53
e 15 56
e 15 57
e 15 63
e 15 65
e 15 66
e 15 71
e 15 72
e 15 74
e 15 79
e 15 82
e 15 85
e 15 86
e 15 89
e 15 90
e 15 94
e 15 95
e 15 99
e 15 101
e 15 102
e 15 107
e 15 108
e 15 109
e 15 110
e 15 111
e 15 112
e 15 118
e 15 119
e 15 120
e 15 121
e 15 126
e 15 127
e 15 128
e 15 129
e 15 130
e 15 132
e 15 133
e 15 138
e 15 139
e 15 140
e 15 141
e 15 146
e 15 149
e 16 17
e 16 18
e 16 23
e 16 24
e 16 26
e 16 30
e 16 31
e 16 37
e 16 39
e 16 42
e 16 48
e 16 49
e 16 51
e 16 55
e 16 56
e 16 61
e 16 62
e 16 65
e 16 66
e 16 67
e 16 69
e 16 71
e 16 72
e 16 75
e 16 79
e 16 80
e 16 84
e 16 85
e 16 91
e 16 92
e 16 93
e 16 94
e 16 98
e 16 99
e 16 100
e 16 102
e 16 103
e 16 112
e 16 113
e 16 115
e 16 119
e 16 120
e 16 121
e 16 122
e 16 126
e 16 127
e 16 128
e 16 129
e 16 132
e 16 133
e 16 134
e 16 135
e 16 139
e 16 141
e 16 150
e 17 20
e 17 21
e 17 22
e 17 23
e 17 26
e 17 27
e 17 31
e 17 33
e 17 37
e 17 46
e 17 48
e 17 51
e 17 52
e 17 54
e 17 60
e 17 64
e 17 65
e 17 66
e 17 67
e 17 68
e 17 72
e 17 79
e 17 83
e 17 87
e 17 89
e 17 90
e 17 91
e 17 97
e 17 99
e 17 101
e 17 106
e 17 108
e 17 110
e 17 111
e 17 112
e 17 116
e 17 118
e 17 120
e 17 124
e 17 125
e 17 128
e 17 133
e 17 139
e 17 140
e 17 141
e 17 142
e 17 145
e 17 146
e 17 147
e 17 150
e 18 21
e 18 24
e 18 26
e 18 27
e 18 29
e 18 33
e 18 34
e 18 37
e 18 40
e 18 41
e 18 43
e 18 45
e 18 50
e 18 51
e 18 53
e 18 55
e 18 60
e 18 62
e 18 65
e 18 70
e 18 77
e 18 78
e 18 79
e 18 81
e 18 82
e 18 84
e 18 86
e 18 88
e 18 91
e 18 95
e 18 96
e 18 98
e 18 99
e 18 106
e 18 107
e 18 111
e 18 113
e 18 114
e 18 117
e 18 118
e 18 124
e 18 131
e 18 135
e 18 138
e 18 139
e 18 140
e 18 141
e 18 142
e 18 143
e 18 144
e 18 146
e 18 150
e 19 23
e 19 24
e 19 26
e 19 28
e 19 29
e 19 35
e 19 40
e 19 41
e 19 42
e 19 44
e 19 46
e 19 47
e 19 48
e 19 50
e 19 51
e 19 52
e 19 55
e 19 56
e 19 60
e 19 61
e 19 62
e 19 67
e 19 68
e 19 69
e 19 70
e 19 74
e 19 76
e 19 77
e 19 78
e 19 80
e 19 83
e 19 84
e 19 86
e 19 89
e 19 91
e 19 93
e 19 94
e 19 95
e 19 96
e 19 97
e 19 99
e 19 100
e 19 101
e 19 105
e 19 106
e 19 107
e 19 108
e 19 109
e 19 111
e 19 112
e 19 113
e 19 116
e 19 118
e 19 119
e 19 122
e 19 123
e 19 125
e 19 126
e 19 127
e 19 129
e 19 130
e 19 131
e 19 133
e 19 134
e 19 135
e 19 136
e 19 140
e 19 142
e 19 145
e 19 147
e 19 149
e 20 21
e 20 22
e 20 26
e 20 27
e 20 30
e 20 34
e 20 37
e 20 41
e 20 43
e 20 46
e 20 49
e 20 50
e 20 53
e 20 55
e 20 60
e 20 62
e 20 65
e 20 70
e 20 74
e 20 76
e 20 80
e 20 81
e 20 82
e 20 85
e 20 88
e 20 89
e 20 93
e 20 94
e 20 101
e 20 103
e 20 104
e 20 108
e 20 109
e 20 111
e 20 116
e 20 119
e 20 120
e 20 121
e 20 123
e 20 125
e 20 131
e 20 132
e 20 135
e 20 139
e 20 140
e 20 142
e 20 146
e 20 148
e 21 23
e 21 32
e 21 34
e 21 35
e 21 36
e 21 42
e 21 43
e 21 44
e 21 45
e 21 46
e 21 51
e 21 55
e 21 60
e 21 67
e 21 69
e 21 72
e 21 74
e 21 75
e 21 76
e 21 82
e 21 83
e 21 84
e 21 85
e 21 87
e 21 91
e 21 92
e 21 101
e 21 107
e 21 108
e 21 109
e 21 115
e 21 118
e 21 120
e 21 122
e 21 123
e 21 125
e 21 127
e 21 130
e 21 131
e 21 133
e 21 134
e 21 135
e 21 138
e 21 139
e 21 140
e 21 141
e 21 142
e 22 23
e 22 25
e 22 26
e 22 27
e 22 28
e 22 31
e 22 35
e 22 36
e 22 37
e 22 40
e 22 43
e 22 46
e 22 49
e 22 50
e 22 51
e 22 53
e 22 56
e 22 57
e 22 60
e 22 62
e 22 65
e 22 71
e 22 80
e 22 81
e 22 82
e 22 85
e 22 86
e 22 88
e 22 90
e 22 94
e 22 97
e 22 103
e 22 107
e 22 109
e 22 113
e 22 119
e 22 121
e 22 123
e 22 125
e 22 131
e 22 135
e 22 136
e 22 137
e 22 142
e 22 144
e 22 146
e 23 24
e 23 25
e 23 27
e 23 28
e 23 30
e 23 32
e 23 33
e 23 36
e 23 39
e 23 43
e 23 46
e 23 51
e 23 53
e 23 54
e 23 60
e 23 63
e 23 65
e 23 71
e 23 73
e 23 75
e 23 77
e 23 78
e 23 80
e 23 81
e 23 83
e 23 84
e 23 88
e 23 94
e 23 95
e 23 96
e 23 104
e 23 105
e 23 107
e 23 108
e 23 109
e 23 110
e 23 111
e 23 114
e 23 115
e 23 116
e 23 118
e 23 122
e 23 124
e 23 126
e 23 130
e 23 139
e 23 140
e 23 141
e 23 146
e 23 147
e 23 150
e 24 27
e 24 28
e 24 29
e 24 30
e 24 31
e 24 32
e 24 33
e 24 34
e 24 35
e 24 36
e 24 38
e 24 40
e 24 42
e 24 46
e 24 47
e 24 53
e 24 54
e 24 55
e 24 60
e 24 64
e 24 66
e 24 69
e 24 73
e 24 74
e 24 76
e 24 82
e 24 83
e 24 88
e 24 91
e 24 92
e 24 93
e 24 94
e 24 97
e 24 98
e 24 100
e 24 101
e 24 105
e 24 107
e 24 108
e 24 110
e 24 112
e 24 114
e 24 116
e 24 118
e 24 120
e 24 121
e 24 128
e 24 131
e 24 133
e 24 135
e 24 137
e 24 138
e 24 139
e 24 140
e 24 143
e 24 147
e 24 148
e 24 149
e 25 26
e 25 29
e 25 30
e 25 34
e 25 40
e 25 43
e 25 48
e 25 56
e 25 57
e 25 58
e 25 61
e 25 64
e 25 67
e 25 71
e 25 72
e 25 73
e 25 75
e 25 78
e 25 85
e 25 86
e 25 87
e 25 88
e 25 90
e 25 92
e 25 93
e 25 95
e 25 96
e 25 98
e 25 100
e 25 101
e 25 102
e 25 103
e 25 104
e 25 107
e 25 110
e 25 111
e 25 112
e 25 113
e 25 114
e 25 117
e 25 119
e 25 120
e 25 122
e 25 123
e 25 125
e 25 126
e 25 127
e 25 130
e 25 131
e 25 134
e 25 139
e 25 149
e 25 150
e 26 27
e 26 30
e 26 31
e 26 32
e 26 33
e 26 43
e 26 44
e 26 47
e 26 49
e 26 50
e 26 55
e 26 56
e 26 58
e 26 59
e 26 60
e 26 61
e 26 62
e 26 64
e 26 65
e 26 67
e 26 71
e 26 72
e 26 74
e 26 75
e 26 76
e 26 77
e 26 83
e 26 87
e 26 93
e 26 94
e 26 96
e 26 99
e 26 102
e 26 105
e 26 106
e 26 107
e 26 108
e 26 111
e 26 112
e 26 117
e 26 126
e 26 131
e 26 132
e 26 133
e 26 137
e 26 138
e 26 139
e 26 140
e 26 141
e 26 143
e 26 149
e 27 29
e 27 30
e 27 32
e 27 33
e 27 34
e 27 36
e 27 43
e 27 44
e 27 46
e 27 51
e 27 53
e 27 56
e 27 57
e 27 59
e 27 60
e 27 61
e 27 63
e 27 64
e 27 68
e 27 69
e 27 70
e 27 71
e 27 75
e 27 78
e 27 80
e 27 81
e 27 87
e 27 88
e 27 90
e 27 95
e 27 97
e 27 98
e 27 107
e 27 113
e 27 114
e 27 116
e 27 117
e 27 119
e 27 120
e 27 124
e 27 126
e 27 129
e 27 132
e 27 133
e 27 136
e 27 137
e 27 138
e 27 139
e 27 140
e 27 142
e 27 143
e 27 144
e 27 146
e 27 147
e 27 148
e 27 149
e 27 150
e 28 31
e 28 35
e 28 39
e 28 40
e 28 50
e 28 52
e 28 55
e 28 57
e 28 60
e 28 64
e 28 66
e 28 70
e 28 72
e 28 74
e 28 76
e 28 78
e 28 81
e 28 84
e 28 87
e 28 88
e 28 93
e 28 99
e 28 100
e 28 104
e 28 105
e 28 106
e 28 112
e 28 113
e 28 114
e 28 119
e 28 120
e 28 121
e 28 123
e 28 124
e 28 132
e 28 133
e 28 134
e 28 138
e 28 141
e 28 144
e 28 148
e 29 35
e 29 38
e 29 52
e 29 54
e 29 57
e 29 58
e 29 60
e 29 61
e 29 69
e 29 70
e 29 72
e 29 75
e 29 77
e 29 78
e 29 79
e 29 80
e 29 85
e 29 86
e 29 88
e 29 89
e 29 99
e 29 100
e 29 101
e 29 102
e 29 103
e 29 105
e 29 107
e 29 111
e 29 112
e 29 116
e 29 121
e 29 125
e 29 126
e 29 129
e 29 130
e 29 132
e 29 133
e 29 134
e 29 135
e 29 137
e 29 138
e 29 141
e 29 143
e 29 144
e 29 146
e 29 147
e 29 148
e 29 149
e 29 150
e 30 33
e 30 34
e 30 35
e 30 37
e 30 38
e 30 43
e 30 47
e 30 49
e 30 50
e 30 51
e 30 56
e 30 61
e 30 63
e 30 69
e 30 74
e 30 75
e 30 76
e 30 82
e 30 84
e 30 86
e 30 93
e 30 97
e 30 100
e 30 101
e 30 105
e 30 109
e 30 112
e 30 117
e 30 119
e 30 123
e 30 124
e 30 126
e 30 128
e 30 131
e 30 132
e 30 133
e 30 134
e 30 137
e 30 138
e 30 140
e 30 141
e 30 145
e 30 147
e 31 33
e 31 35
e 31 37
e 31 38
e 31 39
e 31 45
e 31 47
e 31 49
e 31 52
e 31 58
e 31 61
e 31 62
e 31 63
e 31 68
e 31 74
e 31 77
e 31 78
e 31 81
e 31 83
e 31 84
e 31 86
e 31 87
e 31 88
e 31 89
e 31 91
e 31 101
e 31 104
e 31 105
e 31 106
e 31 112
e 31 113
e 31 115
e 31 117
e 31 118
e 31 125
e 31 130
e 31 131
e 31 134
e 31 135
e 31 136
e 31 137
e 31 139
e 31 150
e 32 39
e 32 40
e 32 41
e 32 43
e 32 44
e 32 46
e 32 47
e 32 48
e 32 49
e 32 55
e 32 58
e 32 60
e 32 62
e 32 63
e 32 64
e 32 65
e 32 66
e 32 67
e 32 68
e 32 69
e 32 71
e 32 74
e 32 77
e 32 80
e 32 84
e 32 87
e 32 90
e 32 94
e 32 96
e 32 97
e 32 100
e 32 101
e 32 108
e 32 112
e 32 115
e 32 117
e 32 120
e 32 125
e 32 126
e 32 128
e 32 129
e 32 133
e 32 135
e 32 138
e 32 139
e 32 146
e 32 147
e 32 149
e 33 34
e 33 36
e 33 37
e 33 42
e 33 43
e 33 45
e 33 50
e 33 51
e 33 52
e 33 57
e 33 58
e 33 61
e 33 63
e 33 64
e 33 66
e 33 69
e 33 70
e 33 73
e 33 74
e 33 76
e 33 78
e 33 80
e 33 81
e 33 84
e 33 87
e 33 89
e 33 90
e 33 91
e 33 94
e 33 100
e 33 101
e 33 102
e 33 104
e 33 105
e 33 109
e 33 112
e 33 113
e 33 117
e 33 119
e 33 123
e 33 124
e 33 125
e 33 126
e 33 127
e 33 132
e 33 133
e 33 134
e 33 136
e 33 140
e 33 142
e 33 143
e 33 144
e 34 35
e 34 36
e 34 38
e 34 42
e 34 45
e 34 48
e 34 50
e 34 51
e 34 52
e 34 56
e 34 61
e 34 64
e 34 68
e 34 69
e 34 74
e 34 80
e 34 86
e 34 88
e 34 89
e 34 91
e 34 95
e 34 96
e 34 101
e 34 103
e 34 104
e 34 105
e 34 111
e 34 112
e 34 117
e 34 119
e 34 121
e 34 122
e 34 126
e 34 128
e 34 130
e 34 138
e 34 139
e 34 140
e 34 144
e 34 146
e 34 147
e 34 149
e 35 41
e 35 45
e 35 49
e 35 50
e 35 51
e 35 52
e 35 57
e 35 59
e 35 60
e 35 63
e 35 65
e 35 68
e 35 70
e 35 71
e 35 72
e 35 76
e 35 80
e 35 81
e 35 83
e 35 85
e 35 88
e 35 89
e 35 90
e 35 93
e 35 95
e 35 98
e 35 103
e 35 108
e 35 113
e 35 120
e 35 122
e 35 125
e 35 128
e 35 129
e 35 131
e 35 133
e 35 135
e 35 136
e 35 137
e 35 142
e 35 143
e 35 145
e 35 146
e 35 147
e 35 150
e 36 38
e 36 40
e 36 45
e 36 48
e 36 50
e 36 54
e 36 58
e 36 59
e 36 61
e 36 62
e 36 64
e 36 66
e 36 67
e 36 68
e 36 78
e 36 79
e 36 81
e 36 82
e 36 83
e 36 86
e 36 88
e 36 90
e 36 91
e 36 93
e 36 94
e 36 97
e 36 98
e 36 102
e 36 104
e 36 105
e 36 106
e 36 107
e 36 109
e 36 114
e 36 118
e 36 119
e 36 123
e 36 124
e 36 127
e 36 129
e 36 132
e 36 134
e 36 136
e 36 139
e 36 140
e 36 142
e 36 146
e 36 147
e 36 148
e 37 38
e 37 40
e 37 41
e 37 43
e 37 44
e 37 49
e 37 50
e 37 52
e 37 54
e 37 55
e 37 60
e 37 62
e 37 63
e 37 64
e 37 67
e 37 68
e 37 72
e 37 76
e 37 79
e 37 82
e 37 83
e 37 85
e 37 86
e 37 90
e 37 94
e 37 96
e 37 99
e 37 100
e 37 101
e 37 103
e 37 104
e 37 107
e 37 108
e 37 115
e 37 116
e 37 117
e 37 118
e 37 120
e 37 121
e 37 122
e 37 124
e 37 125
e 37 127
e 37 129
e 37 133
e 37 137
e 37 139
e 37 140
e 37 142
e 37 145
e 38 39
e 38 40
e 38 55
e 38 56
e 38 58
e 38 61
e 38 64
e 38 65
e 38 68
e 38 70
e 38 76
e 38 77
e 38 79
e 38 81
e 38 86
e 38 89
e 38 92
e 38 93
e 38 94
e 38 95
e 38 105
e 38 108
e 38 110
e 38 113
e 38 114
e 38 115
e 38 117
e 38 118
e 38 119
e 38 123
e 38 128
e 38 129
e 38 131
e 38 132
e 38 133
e 38 135
e 38 137
e 38 140
e 38 145
e 39 47
e 39 49
e 39 50
e 39 51
e 39 52
e 39 53
e 39 54
e 39 55
e 39 56
e 39 58
e 39 60
e 39 61
e 39 64
e 39 65
e 39 67
e 39 76
e 39 80
e 39 82
e 39 87
e 39 88
e 39 89
e 39 92
e 39 96
e 39 100
e 39 102
e 39 106
e 39 109
e 39 112
e 39 113
e 39 114
e 39 117
e 39 118
e 39 119
e 39 123
e 39 125
e 39 128
e 39 130
e 39 131
e 39 132
e 39 133
e 39 140
e 39 141
e 39 143
e 39 145
e 39 146
e 39 148
e 39 149
e 40 41
e 40 48
e 40 49
e 40 54
e 40 56
e 40 57
e 40 59
e 40 61
e 40 62
e 40 63
e 40 64
e 40 65
e 40 67
e 40 68
e 40 77
e 40 78
e 40 79
e 40 81
e 40 84
e 40 85
e 40 89
e 40 90
e 40 94
e 40 99
e 40 100
e 40 101
e 40 102
e 40 104
e 40 105
e 40 106
e 40 107
e 40 109
e 40 118
e 40 119
e 40 122
e 40 124
e 40 125
e 40 126
e 40 127
e 40 128
e 40 132
e 40 133
e 40 134
e 40 138
e 40 139
e 40 142
e 40 144
e 40 146
e 41 42
e 41 43
e 41 46
e 41 48
e 41 51
e 41 52
e 41 56
e 41 60
e 41 62
e 41 65
e 41 67
e 41 72
e 41 73
e 41 75
e 41 76
e 41 78
e 41 79
e 41 81
e 41 90
e 41 91
e 41 92
e 41 93
e 41 95
e 41 96
e 41 97
e 41 98
e 41 99
e 41 100
e 41 103
e 41 104
e 41 107
e 41 112
e 41 113
e 41 119
e 41 120
e 41 121
e 41 123
e 41 125
e 41 126
e 41 127
e 41 128
e 41 131
e 41 132
e 41 136
e 41 140
e 41 144
e 41 145
e 41 146
e 41 149
e 41 150
e 42 43
e 42 48
e 42 50
e 42 56
e 42 62
e 42 67
e 42 68
e 42 69
e 42 71
e 42 73
e 42 74
e 42 75
e 42 78
e 42 80
e 42 86
e 42 87
e 42 88
e 42 92
e 42 96
e 42 98
e 42 101
e 42 102
e 42 105
e 42 109
e 42 113
e 42 114
e 42 115
e 42 120
e 42 121
e 42 122
e 42 123
e 42 124
e 42 126
e 42 128
e 42 131
e 42 133
e 42 136
e 42 139
e 42 140
e 42 141
e 42 142
e 42 145
e 42 147
e 42 149
e 42 150
e 43 45
e 43 47
e 43 51
e 43 54
e 43 56
e 43 59
e 43 60
e 43 67
e 43 78
e 43 82
e 43 83
e 43 85
e 43 90
e 43 95
e 43 96
e 43 100
e 43 101
e 43 102
e 43 104
e 43 108
e 43 112
e 43 116
e 43 117
e 43 118
e 43 119
e 43 122
e 43 123
e 43 126
e 43 127
e 43 128
e 43 130
e 43 131
e 43 132
e 43 134
e 43 137
e 43 139
e 43 141
e 43 142
e 43 144
e 44 46
e 44 47
e 44 48
e 44 51
e 44 53
e 44 55
e 44 56
e 44 61
e 44 62
e 44 65
e 44 70
e 44 71
e 44 72
e 44 74
e 44 75
e 44 77
e 44 80
e 44 86
e 44 87
e 44 88
e 44 90
e 44 91
e 44 93
e 44 97
e 44 98
e 44 99
e 44 102
e 44 103
e 44 104
e 44 105
e 44 106
e 44 107
e 44 108
e 44 109
e 44 111
e 44 112
e 44 115
e 44 119
e 44 122
e 44 123
e 44 127
e 44 130
e 44 131
e 44 132
e 44 140
e 44 141
e 44 144
e 44 146
e 45 46
e 45 47
e 45 50
e 45 51
e 45 54
e 45 55
e 45 56
e 45 60
e 45 61
e 45 62
e 45 66
e 45 68
e 45 75
e 45 77
e 45 84
e 45 85
e 45 86
e 45 88
e 45 89
e 45 91
e 45 94
e 45 95
e 45 96
e 45 97
e 45 98
e 45 99
e 45 100
e 45 101
e 45 103
e 45 106
e 45 108
e 45 110
e 45 111
e 45 115
e 45 116
e 45 117
e 45 118
e 45 119
e 45 120
e 45 122
e 45 124
e 45 125
e 45 126
e 45 129
e 45 134
e 45 136
e 45 138
e 45 141
e 45 144
e 45 145
e 45 146
e 45 148
e 45 149
e 46 48
e 46 52
e 46 55
e 46 57
e 46 61
e 46 62
e 46 63
e 46 65
e 46 69
e 46 78
e 46 79
e 46 80
e 46 82
e 46 84
e 46 87
e 46 94
e 46 98
e 46 99
e 46 100
e 46 101
e 46 103
e 46 107
e 46 110
e 46 112
e 46 114
e 46 116
e 46 117
e 46 119
e 46 120
e 46 125
e 46 126
e 46 127
e 46 133
e 46 137
e 46 142
e 46 143
e 46 145
e 46 146
e 46 150
e 47 50
e 47 52
e 47 53
e 47 55
e 47 56
e 47 58
e 47 60
e 47 61
e 47 63
e 47 64
e 47 65
e 47 66
e 47 69
e 47 71
e 47 73
e 47 77
e 47 79
e 47 80
e 47 81
e 47 85
e 47 87
e 47 89
e 47 90
e 47 93
e 47 94
e 47 97
e 47 99
e 47 100
e 47 103
e 47 104
e 47 105
e 47 106
e 47 109
e 47 110
e 47 113
e 47 116
e 47 118
e 47 119
e 47 124
e 47 125
e 47 126
e 47 128
e 47 131
e 47 134
e 47 135
e 47 137
e 47 141
e 47 142
e 47 143
e 48 51
e 48 55
e 48 58
e 48 59
e 48 61
e 48 64
e 48 65
e 48 67
e 48 69
e 48 71
e 48 73
e 48 74
e 48 75
e 48 76
e 48 78
e 48 79
e 48 80
e 48 84
e 48 85
e 48 87
e 48 88
e 48 89
e 48 93
e 48 94
e 48 96
e 48 97
e 48 98
e 48 102
e 48 105
e 48 107
e 48 111
e 48 112
e 48 118
e 48 122
e 48 123
e 48 124
e 48 127
e 48 128
e 48 131
e 48 132
e 48 134
e 48 138
e 48 139
e 48 145
e 48 147
e 48 148
e 48 150
e 49 53
e 49 54
e 49 56
e 49 57
e 49 65
e 49 79
e 49 84
e 49 85
e 49 86
e 49 87
e 49 89
e 49 92
e 49 96
e 49 98
e 49 100
e 49 104
e 49 108
e 49 109
e 49 110
e 49 111
e 49 113
e 49 115
e 49 116
e 49 118
e 49 121
e 49 122
e 49 123
e 49 124
e 49 125
e 49 132
e 49 136
e 49 137
e 49 139
e 49 141
e 49 142
e 49 143
e 49 145
e 49 146
e 49 148
e 50 52
e 50 56
e 50 70
e 50 71
e 50 72
e 50 73
e 50 78
e 50 80
e 50 81
e 50 86
e 50 90
e 50 92
e 50 93
e 50 101
e 50 103
e 50 104
e 50 105
e 50 107
e 50 108
e 50 109
e 50 110
e 50 112
e 50 113
e 50 114
e 50 115
e 50 116
e 50 117
e 50 119
e 50 120
e 50 122
e 50 124
e 50 125
e 50 126
e 50 130
e 50 131
e 50 133
e 50 138
e 50 139
e 50 141
e 50 142
e 50 144
e 50 148
e 51 52
e 51 55
e 51 57
e 51 60
e 51 61
e 51 62
e 51 69
e 51 71
e 51 78
e 51 80
e 51 82
e 51 87
e 51 88
e 51 91
e 51 94
e 51 96
e 51 98
e 51 99
e 51 100
e 51 101
e 51 104
e 51 105
e 51 106
e 51 109
e 51 111
e 51 112
e 51 114
e 51 115
e 51 116
e 51 119
e 51 121
e 51 123
e 51 124
e 51 126
e 51 128
e 51 129
e 51 132
e 51 139
e 51 144
e 51 145
e 51 147
e 51 148
e 52 58
e 52 60
e 52 61
e 52 62
e 52 63
e 52 66
e 52 69
e 52 71
e 52 72
e 52 75
e 52 77
e 52 78
e 52 80
e 52 83
e 52 84
e 52 90
e 52 101
e 52 105
e 52 106
e 52 107
e 52 108
e 52 110
e 52 115
e 52 118
e 52 124
e 52 125
e 52 126
e 52 131
e 52 132
e 52 133
e 52 138
e 52 139
e 52 140
e 53 54
e 53 57
e 53 62
e 53 63
e 53 65
e 53 66
e 53 67
e 53 68
e 53 69
e 53 75
e 53 78
e 53 79
e 53 82
e 53 85
e 53 86
e 53 87
e 53 88
e 53 90
e 53 91
e 53 93
e 53 94
e 53 95
e 53 98
e 53 100
e 53 103
e 53 107
e 53 109
e 53 112
e 53 114
e 53 117
e 53 118
e 53 119
e 53 122
e 53 123
e 53 124
e 53 125
e 53 129
e 53 130
e 53 131
e 53 132
e 53 133
e 53 135
e 53 139
e 53 141
e 53 146
e 53 149
e 53 150
e 54 55
e 54 56
e 54 57
e 54 61
e 54 62
e 54 63
e 54 67
e 54 69
e 54 70
e 54 75
e 54 80
e 54 81
e 54 82
e 54 83
e 54 85
e 54 86
e 54 88
e 54 89
e 54 100
e 54 102
e 54 104
e 54 114
e 54 127
e 54 128
e 54 134
e 54 135
e 54 137
e 54 138
e 54 143
e 54 145
e 54 146
e 54 148
e 54 150
e 55 56
e 55 57
e 55 59
e 55 62
e 55 66
e 55 69
e 55 72
e 55 74
e 55 78
e 55 84
e 55 92
e 55 93
e 55 95
e 55 96
e 55 97
e 55 101
e 55 104
e 55 105
e 55 106
e 55 107
e 55 112
e 55 115
e 55 116
e 55 118
e 55 121
e 55 129
e 55 130
e 55 131
e 55 133
e 55 135
e 55 147
e 55 148
e 55 149
e 55 150
e 56 58
e 56 60
e 56 61
e 56 63
e 56 64
e 56 69
e 56 70
e 56 73
e 56 75
e 56 77
e 56 80
e 56 81
e 56 82
e 56 83
e 56 86
e 56 88
e 56 90
e 56 97
e 56 103
e 56 106
e 56 108
e 56 111
e 56 113
e 56 117
e 56 118
e 56 125
e 56 126
e 56 128
e 56 132
e 56 133
e 56 136
e 56 138
e 56 140
e 56 142
e 56 145
e 56 147
e 56 148
e 56 150
e 57 62
e 57 64
e 57 65
e 57 72
e 57 73
e 57 75
e 57 81
e 57 82
e 57 86
e 57 88
e 57 89
e 57 92
e 57 95
e 57 96
e 57 98
e 57 100
e 57 105
e 57 115
e 57 116
e 57 117
e 57 119
e 57 120
e 57 121
e 57 125
e 57 126
e 57 132
e 57 138
e 57 142
e 57 144
e 57 148
e 57 149
e 57 150
e 58 64
e 58 66
e 58 73
e 58 77
e 58 78
e 58 80
e 58 81
e 58 82
e 58 83
e 58 86
e 58 90
e 58 91
e 58 99
e 58 103
e 58 104
e 58 106
e 58 109
e 58 111
e 58 115
e 58 120
e 58 122
e 58 124
e 58 125
e 58 128
e 58 130
e 58 132
e 58 134
e 58 136
e 58 137
e 58 138
e 58 140
e 58 141
e 58 143
e 58 144
e 58 145
e 58 148
e 59 63
e 59 67
e 59 71
e 59 75
e 59 80
e 59 86
e 59 88
e 59 89
e 59 93
e 59 106
e 59 107
e 59 108
e 59 113
e 59 116
e 59 120
e 59 124
e 59 125
e 59 130
e 59 131
e 59 132
e 59 133
e 59 136
e 59 138
e 59 139
e 59 140
e 59 142
e 59 145
e 59 147
e 59 149
e 59 150
e 60 63
e 60 64
e 60 67
e 60 70
e 60 73
e 60 74
e 60 79
e 60 81
e 60 82
e 60 84
e 60 86
e 60 87
e 60 95
e 60 97
e 60 98
e 60 101
e 60 103
e 60 104
e 60 110
e 60 111
e 60 114
e 60 116
e 60 120
e 60 122
e 60 125
e 60 126
e 60 128
e 60 130
e 60 132
e 60 134
e 60 135
e 60 144
e 60 146
e 60 147
e 60 148
e 60 149
e 61 63
e 61 66
e 61 67
e 61 71
e 61 72
e 61 73
e 61 76
e 61 77
e 61 83
e 61 88
e 61 92
e 61 96
e 61 103
e 61 104
e 61 107
e 61 110
e 61 111
e 61 114
e 61 116
e 61 117
e 61 124
e 61 125
e 61 128
e 61 129
e 61 132
e 61 133
e 61 134
e 61 139
e 61 140
e 61 141
e 61 147
e 61 148
e 61 150
e 62 69
e 62 71
e 62 72
e 62 75
e 62 77
e 62 83
e 62 84
e 62 85
e 62 87
e 62 89
e 62 90
e 62 91
e 62 99
e 62 100
e 62 101
e 62 105
e 62 110
e 62 112
e 62 113
e 62 114
e 62 115
e 62 116
e 62 119
e 62 120
e 62 123
e 62 125
e 62 126
e 62 127
e 62 128
e 62 129
e 62 139
e 62 141
e 62 143
e 62 144
e 62 145
e 62 147
e 62 148
e 62 150
e 63 64
e 63 66
e 63 71
e 63 73
e 63 74
e 63 76
e 63 77
e 63 79
e 63 80
e 63 82
e 63 83
e 63 84
e 63 86
e 63 89
e 63 93
e 63 95
e 63 100
e 63 101
e 63 106
e 63 108
e 63 109
e 63 111
e 63 112
e 63 115
e 63 116
e 63 117
e 63 120
e 63 121
e 63 124
e 63 126
e 63 127
e 63 133
e 63 134
e 63 139
e 63 143
e 63 145
e 63 149
e 63 150
e 64 65
e 64 69
e 64 73
e 64 77
e 64 84
e 64 85
e 64 88
e 64 91
e 64 93
e 64 94
e 64 96
e 64 97
e 64 101
e 64 106
e 64 112
e 64 114
e 64 115
e 64 116
e 64 119
e 64 126
e 64 127
e 64 133
e 64 134
e 64 135
e 64 137
e 64 139
e 64 140
e 64 142
e 64 146
e 65 68
e 65 73
e 65 75
e 65 76
e 65 77
e 65 78
e 65 81
e 65 88
e 65 89
e 65 101
e 65 103
e 65 105
e 65 107
e 65 109
e 65 113
e 65 114
e 65 117
e 65 119
e 65 123
e 65 126
e 65 127
e 65 128
e 65 129
e 65 130
e 65 132
e 65 133
e 65 135
e 65 136
e 65 139
e 65 146
e 66 67
e 66 70
e 66 71
e 66 73
e 66 75
e 66 80
e 66 83
e 66 84
e 66 88
e 66 89
e 66 91
e 66 92
e 66 93
e 66 104
e 66 111
e 66 112
e 66 122
e 66 123
e 66 127
e 66 129
e 66 130
e 66 132
e 66 133
e 66 137
e 66 140
e 66 141
e 66 144
e 66 147
e 66 149
e 66 150
e 67 73
e 67 74
e 67 77
e 67 78
e 67 79
e 67 80
e 67 82
e 67 84
e 67 86
e 67 89
e 67 94
e 67 98
e 67 99
e 67 107
e 67 108
e 67 110
e 67 112
e 67 113
e 67 115
e 67 117
e 67 119
e 67 121
e 67 124
e 67 126
e 67 128
e 67 129
e 67 130
e 67 131
e 67 132
e 67 136
e 67 138
e 67 141
e 67 142
e 67 148
e 68 69
e 68 71
e 68 72
e 68 74
e 68 79
e 68 82
e 68 87
e 68 89
e 68 91
e 68 93
e 68 99
e 68 101
e 68 103
e 68 104
e 68 105
e 68 106
e 68 108
e 68 109
e 68 110
e 68 111
e 68 112
e 68 113
e 68 115
e 68 116
e 68 120
e 68 123
e 68 125
e 68 126
e 68 129
e 68 132
e 68 135
e 68 136
e 68 138
e 68 139
e 68 141
e 68 142
e 68 149
e 68 150
e 69 75
e 69 76
e 69 79
e 69 80
e 69 82
e 69 84
e 69 88
e 69 92
e 69 93
e 69 94
e 69 96
e 69 97
e 69 98
e 69 104
e 69 108
e 69 110
e 69 118
e 69 125
e 69 126
e 69 127
e 69 128
e 69 135
e 69 138
e 69 139
e 69 140
e 69 142
e 69 144
e 69 145
e 69 146
e 69 147
e 69 148
e 69 149
e 69 150
e 70 72
e 70 75
e 70 78
e 70 79
e 70 81
e 70 82
e 70 86
e 70 90
e 70 96
e 70 97
e 70 101
e 70 102
e 70 103
e 70 104
e 70 109
e 70 111
e 70 112
e 70 113
e 70 121
e 70 122
e 70 125
e 70 126
e 70 129
e 70 132
e 70 141
e 70 146
e 70 149
e 71 72
e 71 73
e 71 75
e 71 76
e 71 82
e 71 83
e 71 86
e 71 89
e 71 91
e 71 92
e 71 94
e 71 95
e 71 96
e 71 100
e 71 102
e 71 105
e 71 110
e 71 111
e 71 115
e 71 117
e 71 120
e 71 124
e 71 129
e 71 132
e 71 136
e 71 141
e 71 142
e 71 144
e 71 145
e 71 147
e 71 148
e 71 149
e 72 74
e 72 78
e 72 79
e 72 87
e 72 90
e 72 92
e 72 94
e 72 98
e 72 100
e 72 102
e 72 107
e 72 109
e 72 115
e 72 116
e 72 117
e 72 121
e 72 123
e 72 124
e 72 125
e 72 128
e 72 133
e 72 136
e 72 138
e 72 142
e 72 143
e 72 144
e 72 146
e 72 147
e 73 74
e 73 75
e 73 77
e 73 79
e 73 80
e 73 81
e 73 83
e 73 87
e 73 89
e 73 90
e 73 91
e 73 92
e 73 93
e 73 94
e 73 95
e 73 97
e 73 98
e 73 99
e 73 100
e 73 101
e 73 102
e 73 105
e 73 107
e 73 109
e 73 110
e 73 112
e 73 114
e 73 116
e 73 118
e 73 120
e 73 124
e 73 128
e 73 129
e 73 132
e 73 135
e 73 140
e 73 141
e 73 143
e 73 144
e 73 146
e 73 147
e 73 148
e 74 80
e 74 83
e 74 84
e 74 86
e 74 93
e 74 94
e 74 98
e 74 100
e 74 102
e 74 106
e 74 109
e 74 111
e 74 116
e 74 118
e 74 121
e 74 122
e 74 124
e 74 126
e 74 128
e 74 129
e 74 130
e 74 133
e 74 135
e 74 137
e 74 142
e 74 146
e 74 147
e 74 149
e 75 77
e 75 79
e 75 80
e 75 81
e 75 82
e 75 85
e 75 86
e 75 89
e 75 90
e 75 92
e 75 93
e 75 94
e 75 98
e 75 101
e 75 103
e 75 107
e 75 109
e 75 112
e 75 118
e 75 120
e 75 122
e 75 127
e 75 129
e 75 132
e 75 133
e 75 137
e 75 140
e 75 143
e 75 144
e 75 145
e 75 148
e 75 150
e 76 79
e 76 83
e 76 84
e 76 85
e 76 86
e 76 88
e 76 89
e 76 90
e 76 91
e 76 94
e 76 98
e 76 100
e 76 101
e 76 103
e 76 104
e 76 110
e 76 116
e 76 117
e 76 121
e 76 122
e 76 124
e 76 126
e 76 129
e 76 130
e 76 134
e 76 135
e 76 136
e 76 137
e 76 141
e 76 142
e 76 143
e 76 145
e 76 146
e 76 147
e 76 150
e 77 79
e 77 83
e 77 86
e 77 87
e 77 94
e 77 96
e 77 100
e 77 102
e 77 103
e 77 106
e 77 107
e 77 109
e 77 113
e 77 115
e 77 116
e 77 117
e 77 123
e 77 124
e 77 125
e 77 129
e 77 130
e 77 132
e 77 133
e 77 134
e 77 135
e 77 136
e 77 140
e 77 141
e 77 148
e 78 80
e 78 86
e 78 87
e 78 89
e 78 91
e 78 93
e 78 95
e 78 97
e 78 98
e 78 100
e 78 103
e 78 104
e 78 105
e 78 106
e 78 107
e 78 111
e 78 117
e 78 119
e 78 120
e 78 123
e 78 124
e 78 125
e 78 126
e 78 127
e 78 130
e 78 131
e 78 133
e 78 135
e 78 136
e 78 140
e 78 141
e 78 142
e 78 146
e 78 147
e 78 148
e 78 150
e 79 80
e 79 81
e 79 82
e 79 84
e 79 85
e 79 86
e 79 87
e 79 92
e 79 97
e 79 100
e 79 101
e 79 102
e 79 104
e 79 108
e 79 115
e 79 116
e 79 118
e 79 122
e 79 123
e 79 127
e 79 142
e 79 144
e 79 146
e 79 149
e 80 81
e 80 82
e 80 88
e 80 89
e 80 90
e 80 92
e 80 95
e 80 96
e 80 100
e 80 101
e 80 103
e 80 104
e 80 110
e 80 115
e 80 119
e 80 124
e 80 126
e 80 134
e 80 135
e 80 136
e 80 137
e 80 138
e 80 139
e 80 141
e 80 143
e 80 144
e 80 146
e 81 86
e 81 87
e 81 88
e 81 91
e 81 93
e 81 94
e 81 95
e 81 100
e 81 101
e 81 102
e 81 103
e 81 104
e 81 105
e 81 107
e 81 108
e 81 112
e 81 116
e 81 122
e 81 125
e 81 126
e 81 127
e 81 131
e 81 133
e 81 134
e 81 135
e 81 138
e 81 140
e 81 142
e 81 143
e 81 144
e 81 148
e 82 83
e 82 84
e 82 88
e 82 89
e 82 90
e 82 95
e 82 96
e 82 97
e 82 103
e 82 106
e 82 108
e 82 110
e 82 114
e 82 118
e 82 119
e 82 121
e 82 122
e 82 123
e 82 136
e 82 137
e 82 140
e 82 148
e 82 149
e 83 84
e 83 85
e 83 89
e 83 91
e 83 95
e 83 97
e 83 100
e 83 102
e 83 107
e 83 110
e 83 111
e 83 115
e 83 117
e 83 118
e 83 119
e 83 120
e 83 122
e 83 123
e 83 124
e 83 125
e 83 127
e 83 129
e 83 130
e 83 132
e 83 136
e 83 140
e 83 141
e 83 143
e 83 144
e 83 148
e 83 150
e 84 86
e 84 87
e 84 88
e 84 91
e 84 96
e 84 97
e 84 99
e 84 103
e 84 104
e 84 108
e 84 110
e 84 114
e 84 115
e 84 116
e 84 118
e 84 121
e 84 123
e 84 125
e 84 130
e 84 131
e 84 132
e 84 135
e 84 139
e 84 146
e 84 149
e 84 150
e 85 91
e 85 94
e 85 97
e 85 103
e 85 104
e 85 111
e 85 115
e 85 119
e 85 124
e 85 128
e 85 129
e 85 130
e 85 135
e 85 136
e 85 137
e 85 141
e 85 143
e 85 144
e 85 146
e 86 87
e 86 88
e 86 89
e 86 92
e 86 94
e 86 95
e 86 96
e 86 99
e 86 107
e 86 108
e 86 115
e 86 118
e 86 119
e 86 122
e 86 124
e 86 125
e 86 126
e 86 127
e 86 132
e 86 133
e 86 136
e 86 137
e 86 139
e 86 140
e 86 145
e 87 88
e 87 92
e 87 98
e 87 99
e 87 101
e 87 105
e 87 110
e 87 111
e 87 112
e 87 113
e 87 114
e 87 116
e 87 119
e 87 124
e 87 125
e 87 127
e 87 128
e 87 129
e 87 133
e 87 135
e 87 136
e 87 140
e 87 141
e 87 144
e 87 145
e 87 149
e 88 90
e 88 93
e 88 94
e 88 96
e 88 97
e 88 99
e 88 101
e 88 102
e 88 103
e 88 107
e 88 115
e 88 116
e 88 117
e 88 120
e 88 123
e 88 126
e 88 129
e 88 130
e 88 131
e 88 133
e 88 137
e 88 141
e 88 142
e 88 148
e 88 149
e 88 150
e 89 92
e 89 94
e 89 96
e 89 102
e 89 105
e 89 116
e 89 118
e 89 121
e 89 123
e 89 125
e 89 126
e 89 128
e 89 129
e 89 132
e 89 134
e 89 135
e 89 146
e 89 148
e 89 149
e 90 93
e 90 100
e 90 101
e 90 102
e 90 105
e 90 107
e 90 109
e 90 110
e 90 114
e 90 115
e 90 116
e 90 117
e 90 119
e 90 120
e 90 121
e 90 126
e 90 131
e 90 134
e 90 138
e 90 140
e 90 145
e 90 147
e 90 150
e 91 92
e 91 94
e 91 95
e 91 96
e 91 99
e 91 100
e 91 101
e 91 102
e 91 105
e 91 107
e 91 108
e 91 109
e 91 110
e 91 111
e 91 117
e 91 121
e 91 124
e 91 126
e 91 127
e 91 128
e 91 129
e 91 132
e 91 134
e 91 138
e 91 141
e 91 142
e 91 146
e 91 147
e 91 149
e 91 150
e 92 95
e 92 98
e 92 99
e 92 100
e 92 105
e 92 108
e 92 110
e 92 119
e 92 123
e 92 124
e 92 125
e 92 129
e 92 130
e 92 131
e 92 132
e 92 135
e 92 138
e 92 139
e 92 140
e 92 141
e 92 142
e 92 149
e 92 150
e 93 94
e 93 99
e 93 101
e 93 108
e 93 111
e 93 114
e 93 115
e 93 118
e 93 123
e 93 125
e 93 126
e 93 130
e 93 131
e 93 132
e 93 133
e 93 135
e 93 136
e 93 138
e 93 142
e 94 95
e 94 99
e 94 100
e 94 102
e 94 105
e 94 112
e 94 114
e 94 115
e 94 116
e 94 119
e 94 120
e 94 125
e 94 126
e 94 127
e 94 130
e 94 131
e 94 132
e 94 134
e 94 136
e 94 137
e 94 138
e 94 139
e 94 144
e 94 145
e 94 150
e 95 101
e 95 102
e 95 103
e 95 104
e 95 108
e 95 111
e 95 113
e 95 114
e 95 115
e 95 118
e 95 119
e 95 122
e 95 124
e 95 131
e 95 134
e 95 138
e 95 140
e 95 142
e 95 144
e 95 146
e 95 147
e 96 97
e 96 100
e 96 103
e 96 105
e 96 109
e 96 110
e 96 111
e 96 112
e 96 113
e 96 114
e 96 116
e 96 124
e 96 125
e 96 127
e 96 129
e 96 134
e 96 136
e 96 137
e 96 139
e 96 140
e 96 142
e 96 145
e 96 146
e 96 149
e 97 98
e 97 99
e 97 100
e 97 103
e 97 106
e 97 107
e 97 114
e 97 115
e 97 117
e 97 118
e 97 122
e 97 123
e 97 126
e 97 132
e 97 136
e 97 137
e 97 140
e 97 143
e 97 144
e 97 147
e 97 148
e 98 105
e 98 115
e 98 116
e 98 117
e 98 121
e 98 123
e 98 129
e 98 130
e 98 131
e 98 132
e 98 133
e 98 135
e 98 137
e 98 138
e 98 145
e 98 147
e 98 149
e 98 150
e 99 105
e 99 109
e 99 110
e 99 112
e 99 114
e 99 115
e 99 116
e 99 117
e 99 119
e 99 122
e 99 123
e 99 125
e 99 126
e 99 131
e 99 132
e 99 133
e 99 134
e 99 136
e 99 140
e 99 149
e 100 102
e 100 106
e 100 107
e 100 110
e 100 113
e 100 115
e 100 116
e 100 117
e 100 119
e 100 126
e 100 128
e 100 131
e 100 132
e 100 133
e 100 134
e 100 135
e 100 146
e 100 150
e 101 103
e 101 107
e 101 108
e 101 109
e 101 113
e 101 116
e 101 117
e 101 120
e 101 123
e 101 130
e 101 133
e 101 136
e 101 139
e 101 140
e 101 141
e 101 142
e 101 143
e 101 147
e 101 150
e 102 103
e 102 105
e 102 106
e 102 107
e 102 109
e 102 110
e 102 118
e 102 120
e 102 121
e 102 122
e 102 125
e 102 126
e 102 131
e 102 134
e 102 135
e 102 142
e 102 147
e 102 150
e 103 104
e 103 106
e 103 112
e 103 116
e 103 129
e 103 137
e 103 139
e 103 149
e 103 150
e 104 106
e 104 109
e 104 112
e 104 120
e 104 122
e 104 123
e 104 125
e 104 126
e 104 136
e 104 137
e 104 138
e 104 139
e 104 140
e 104 141
e 104 142
e 104 144
e 104 148
e 105 109
e 105 110
e 105 114
e 105 115
e 105 116
e 105 118
e 105 121
e 105 125
e 105 128
e 105 132
e 105 133
e 105 137
e 105 144
e 105 145
e 105 146
e 105 147
e 106 107
e 106 111
e 106 117
e 106 118
e 106 120
e 106 121
e 106 126
e 106 133
e 106 134
e 106 136
e 106 137
e 106 141
e 106 142
e 106 143
e 106 144
e 106 147
e 106 148
e 107 108
e 107 111
e 107 118
e 107 119
e 107 120
e 107 122
e 107 123
e 107 124
e 107 125
e 107 128
e 107 130
e 107 131
e 107 138
e 107 139
e 107 140
e 107 145
e 107 146
e 107 147
e 107 148
e 107 149
e 108 115
e 108 116
e 108 117
e 108 118
e 108 120
e 108 121
e 108 124
e 108 127
e 108 128
e 108 132
e 108 133
e 108 134
e 108 135
e 108 136
e 108 138
e 108 140
e 108 143
e 108 147
e 108 149
e 108 150
e 109 110
e 109 111
e 109 112
e 109 114
e 109 116
e 109 118
e 109 119
e 109 120
e 109 131
e 109 136
e 109 137
e 109 142
e 109 143
e 109 144
e 109 147
e 109 148
e 109 150
e 110 112
e 110 113
e 110 114
e 110 119
e 110 122
e 110 125
e 110 127
e 110 130
e 110 137
e 110 142
e 110 145
e 111 120
e 111 121
e 111 122
e 111 126
e 111 127
e 111 133
e 111 136
e 111 139
e 111 143
e 111 145
e 111 146
e 111 147
e 112 113
e 112 114
e 112 119
e 112 123
e 112 124
e 112 127
e 112 132
e 112 133
e 112 135
e 112 136
e 112 137
e 112 140
e 112 146
e 112 149
e 112 150
e 113 116
e 113 118
e 113 123
e 113 125
e 113 126
e 113 136
e 113 139
e 113 141
e 113 144
e 113 149
e 114 117
e 114 120
e 114 121
e 114 122
e 114 124
e 114 128
e 114 129
e 114 136
e 114 138
e 114 143
e 114 144
e 114 146
e 114 148
e 114 150
e 115 121
e 115 122
e 115 127
e 115 131
e 115 133
e 115 135
e 115 136
e 115 137
e 115 138
e 115 139
e 115 140
e 115 141
e 115 142
e 115 146
e 115 147
e 115 148
e 115 149
e 115 150
e 116 118
e 116 119
e 116 124
e 116 126
e 116 127
e 116 132
e 116 133
e 116 134
e 116 137
e 116 138
e 116 141
e 116 142
e 116 143
e 116 144
e 117 119
e 117 122
e 117 124
e 117 125
e 117 128
e 117 133
e 117 135
e 117 136
e 117 138
e 117 140
e 117 141
e 117 142
e 117 147
e 117 148
e 118 122
e 118 123
e 118 126
e 118 127
e 118 131
e 118 133
e 118 135
e 118 137
e 118 138
e 118 140
e 118 142
e 118 148
e 118 149
e 118 150
e 119 121
e 119 122
e 119 123
e 119 124
e 119 125
e 119 128
e 119 129
e 119 130
e 119 132
e 119 133
e 119 134
e 119 136
e 119 137
e 119 138
e 119 143
e 119 146
e 119 149
e 120 125
e 120 129
e 120 131
e 120 135
e 120 142
e 121 124
e 121 126
e 121 128
e 121 131
e 121 132
e 121 135
e 121 136
e 121 137
e 121 139
e 121 140
e 121 141
e 121 146
e 121 147
e 122 124
e 122 126
e 122 127
e 122 129
e 122 132
e 122 133
e 122 135
e 122 141
e 122 144
e 122 146
e 122 149
e 122 150
e 123 124
e 123 125
e 123 128
e 123 129
e 123 131
e 123 136
e 123 137
e 123 138
e 123 140
e 123 145
e 123 146
e 124 127
e 124 129
e 124 131
e 124 132
e 124 133
e 124 135
e 124 136
e 124 138
e 124 140
e 124 141
e 124 142
e 124 144
e 124 146
e 124 147
e 124 150
e 125 128
e 125 129
e 125 131
e 125 132
e 125 134
e 125 138
e 125 139
e 125 140
e 125 142
e 125 143
e 125 144
e 125 148
e 125 149
e 126 128
e 126 131
e 126 135
e 126 136
e 126 137
e 126 139
e 126 140
e 126 142
e 126 143
e 126 144
e 126 146
e 126 147
e 126 149
e 126 150
e 127 128
e 127 132
e 127 133
e 127 134
e 127 136
e 127 141
e 127 144
e 127 145
e 127 148
e 127 149
e 127 150
e 128 131
e 128 134
e 128 140
e 128 141
e 128 142
e 128 144
e 128 146
e 129 130
e 129 131
e 129 132
e 129 134
e 129 137
e 129 138
e 129 139
e 129 143
e 129 144
e 129 150
e 130 132
e 130 133
e 130 136
e 130 139
e 130 142
e 130 143
e 130 145
e 130 147
e 131 132
e 131 136
e 131 141
e 131 143
e 131 144
e 131 145
e 131 148
e 132 136
e 132 138
e 132 140
e 132 141
e 132 145
e 133 135
e 133 138
e 133 140
e 133 142
e 133 143
e 133 145
e 133 147
e 134 138
e 134 139
e 134 140
e 134 144
e 134 149
e 135 138
e 135 143
e 135 146
e 135 148
e 135 150
e 136 140
e 136 147
e 136 148
e 137 139
e 137 145
e 137 147
e 137 150
e 138 141
e 138 143
e 138 145
e 138 146
e 138 148
e 139 141
e 139 142
e 139 146
e 139 147
e 139 148
e 139 149
e 139 150
e 140 141
e 140 144
e 140 145
e 140 149
e 140 150
e 141 143
e 141 144
e 141 146
e 141 148
e 141 150
e 142 143
e 142 145
e 142 147
e 142 148
e 142 149
e 142 150
e 143 144
e 143 146
e 143 150
e 144 146
e 145 147
e 146 147
e 146 150
e 147 148
